\ENCODING=ISO-8859-1
\Problem name: TSP

Minimize
 obj: 509 x(1,2) + 501 x(1,3) + 312 x(1,4) + 1019 x(1,5) + 736 x(1,6)
      + 656 x(1,7) + 60 x(1,8) + 1039 x(1,9) + 726 x(1,10) + 2314 x(1,11)
      + 479 x(1,12) + 448 x(1,13) + 479 x(1,14) + 619 x(1,15) + 150 x(1,16)
      + 342 x(1,17) + 323 x(1,18) + 635 x(1,19) + 604 x(1,20) + 596 x(1,21)
      + 202 x(1,22) + 126 x(2,3) + 474 x(2,4) + 1526 x(2,5) + 1226 x(2,6)
      + 1133 x(2,7) + 532 x(2,8) + 1449 x(2,9) + 1122 x(2,10) + 2789 x(2,11)
      + 958 x(2,12) + 941 x(2,13) + 978 x(2,14) + 1127 x(2,15) + 542 x(2,16)
      + 246 x(2,17) + 510 x(2,18) + 1047 x(2,19) + 1021 x(2,20) + 1010 x(2,21)
      + 364 x(2,22) + 541 x(3,4) + 1516 x(3,5) + 1184 x(3,6) + 1084 x(3,7)
      + 536 x(3,8) + 1371 x(3,9) + 1045 x(3,10) + 2728 x(3,11) + 913 x(3,12)
      + 904 x(3,13) + 946 x(3,14) + 1115 x(3,15) + 499 x(3,16) + 321 x(3,17)
      + 577 x(3,18) + 976 x(3,19) + 952 x(3,20) + 941 x(3,21) + 401 x(3,22)
      + 1157 x(4,5) + 980 x(4,6) + 919 x(4,7) + 271 x(4,8) + 1333 x(4,9)
      + 1029 x(4,10) + 2553 x(4,11) + 751 x(4,12) + 704 x(4,13) + 720 x(4,14)
      + 783 x(4,15) + 455 x(4,16) + 228 x(4,17) + 37 x(4,18) + 936 x(4,19)
      + 904 x(4,20) + 898 x(4,21) + 171 x(4,22) + 478 x(5,6) + 583 x(5,7)
      + 996 x(5,8) + 858 x(5,9) + 855 x(5,10) + 1504 x(5,11) + 677 x(5,12)
      + 651 x(5,13) + 600 x(5,14) + 401 x(5,15) + 1033 x(5,16) + 1325 x(5,17)
      + 1134 x(5,18) + 818 x(5,19) + 808 x(5,20) + 820 x(5,21) + 1179 x(5,22)
      + 115 x(6,7) + 740 x(6,8) + 470 x(6,9) + 379 x(6,10) + 1581 x(6,11)
      + 271 x(6,12) + 289 x(6,13) + 261 x(6,14) + 308 x(6,15) + 687 x(6,16)
      + 1077 x(6,17) + 970 x(6,18) + 342 x(6,19) + 336 x(6,20) + 348 x(6,21)
      + 932 x(6,22) + 667 x(7,8) + 455 x(7,9) + 288 x(7,10) + 1661 x(7,11)
      + 177 x(7,12) + 216 x(7,13) + 207 x(7,14) + 343 x(7,15) + 592 x(7,16)
      + 997 x(7,17) + 913 x(7,18) + 236 x(7,19) + 226 x(7,20) + 237 x(7,21)
      + 856 x(7,22) + 1066 x(8,9) + 759 x(8,10) + 2320 x(8,11) + 493 x(8,12)
      + 454 x(8,13) + 479 x(8,14) + 598 x(8,15) + 206 x(8,16) + 341 x(8,17)
      + 278 x(8,18) + 666 x(8,19) + 634 x(8,20) + 628 x(8,21) + 194 x(8,22)
      + 328 x(9,10) + 1387 x(9,11) + 591 x(9,12) + 650 x(9,13) + 656 x(9,14)
      + 776 x(9,15) + 933 x(9,16) + 1367 x(9,17) + 1333 x(9,18) + 408 x(9,19)
      + 438 x(9,20) + 447 x(9,21) + 1239 x(9,22) + 1697 x(10,11) + 333 x(10,12)
      + 400 x(10,13) + 427 x(10,14) + 622 x(10,15) + 610 x(10,16)
      + 1046 x(10,17) + 1033 x(10,18) + 96 x(10,19) + 128 x(10,20)
      + 133 x(10,21) + 922 x(10,22) + 1838 x(11,12) + 1868 x(11,13)
      + 1841 x(11,14) + 1789 x(11,15) + 2248 x(11,16) + 2656 x(11,17)
      + 2540 x(11,18) + 1755 x(11,19) + 1777 x(11,20) + 1789 x(11,21)
      + 2512 x(11,22) + 68 x(12,13) + 105 x(12,14) + 336 x(12,15)
      + 417 x(12,16) + 821 x(12,17) + 748 x(12,18) + 243 x(12,19)
      + 214 x(12,20) + 217 x(12,21) + 680 x(12,22) + 52 x(13,14) + 287 x(13,15)
      + 406 x(13,16) + 789 x(13,17) + 698 x(13,18) + 311 x(13,19)
      + 281 x(13,20) + 283 x(13,21) + 645 x(13,22) + 237 x(14,15)
      + 449 x(14,16) + 818 x(14,17) + 712 x(14,18) + 341 x(14,19)
      + 314 x(14,20) + 318 x(14,21) + 672 x(14,22) + 636 x(15,16)
      + 932 x(15,17) + 764 x(15,18) + 550 x(15,19) + 528 x(15,20)
      + 535 x(15,21) + 785 x(15,22) + 436 x(16,17) + 470 x(16,18)
      + 525 x(16,19) + 496 x(16,20) + 486 x(16,21) + 319 x(16,22)
      + 265 x(17,18) + 959 x(17,19) + 930 x(17,20) + 921 x(17,21)
      + 148 x(17,22) + 939 x(18,19) + 907 x(18,20) + 901 x(18,21)
      + 201 x(18,22) + 33 x(19,20) + 39 x(19,21) + 833 x(19,22) + 14 x(20,21)
      + 803 x(20,22) + 794 x(21,22)
Subject To
 degree(1):  x(1,2) + x(1,3) + x(1,4) + x(1,5) + x(1,6) + x(1,7) + x(1,8)
             + x(1,9) + x(1,10) + x(1,11) + x(1,12) + x(1,13) + x(1,14)
             + x(1,15) + x(1,16) + x(1,17) + x(1,18) + x(1,19) + x(1,20)
             + x(1,21) + x(1,22)  = 2
 degree(2):  x(1,2) + x(2,3) + x(2,4) + x(2,5) + x(2,6) + x(2,7) + x(2,8)
             + x(2,9) + x(2,10) + x(2,11) + x(2,12) + x(2,13) + x(2,14)
             + x(2,15) + x(2,16) + x(2,17) + x(2,18) + x(2,19) + x(2,20)
             + x(2,21) + x(2,22)  = 2
 degree(3):  x(1,3) + x(2,3) + x(3,4) + x(3,5) + x(3,6) + x(3,7) + x(3,8)
             + x(3,9) + x(3,10) + x(3,11) + x(3,12) + x(3,13) + x(3,14)
             + x(3,15) + x(3,16) + x(3,17) + x(3,18) + x(3,19) + x(3,20)
             + x(3,21) + x(3,22)  = 2
 degree(4):  x(1,4) + x(2,4) + x(3,4) + x(4,5) + x(4,6) + x(4,7) + x(4,8)
             + x(4,9) + x(4,10) + x(4,11) + x(4,12) + x(4,13) + x(4,14)
             + x(4,15) + x(4,16) + x(4,17) + x(4,18) + x(4,19) + x(4,20)
             + x(4,21) + x(4,22)  = 2
 degree(5):  x(1,5) + x(2,5) + x(3,5) + x(4,5) + x(5,6) + x(5,7) + x(5,8)
             + x(5,9) + x(5,10) + x(5,11) + x(5,12) + x(5,13) + x(5,14)
             + x(5,15) + x(5,16) + x(5,17) + x(5,18) + x(5,19) + x(5,20)
             + x(5,21) + x(5,22)  = 2
 degree(6):  x(1,6) + x(2,6) + x(3,6) + x(4,6) + x(5,6) + x(6,7) + x(6,8)
             + x(6,9) + x(6,10) + x(6,11) + x(6,12) + x(6,13) + x(6,14)
             + x(6,15) + x(6,16) + x(6,17) + x(6,18) + x(6,19) + x(6,20)
             + x(6,21) + x(6,22)  = 2
 degree(7):  x(1,7) + x(2,7) + x(3,7) + x(4,7) + x(5,7) + x(6,7) + x(7,8)
             + x(7,9) + x(7,10) + x(7,11) + x(7,12) + x(7,13) + x(7,14)
             + x(7,15) + x(7,16) + x(7,17) + x(7,18) + x(7,19) + x(7,20)
             + x(7,21) + x(7,22)  = 2
 degree(8):  x(1,8) + x(2,8) + x(3,8) + x(4,8) + x(5,8) + x(6,8) + x(7,8)
             + x(8,9) + x(8,10) + x(8,11) + x(8,12) + x(8,13) + x(8,14)
             + x(8,15) + x(8,16) + x(8,17) + x(8,18) + x(8,19) + x(8,20)
             + x(8,21) + x(8,22)  = 2
 degree(9):  x(1,9) + x(2,9) + x(3,9) + x(4,9) + x(5,9) + x(6,9) + x(7,9)
             + x(8,9) + x(9,10) + x(9,11) + x(9,12) + x(9,13) + x(9,14)
             + x(9,15) + x(9,16) + x(9,17) + x(9,18) + x(9,19) + x(9,20)
             + x(9,21) + x(9,22)  = 2
 degree(10): x(1,10) + x(2,10) + x(3,10) + x(4,10) + x(5,10) + x(6,10)
             + x(7,10) + x(8,10) + x(9,10) + x(10,11) + x(10,12) + x(10,13)
             + x(10,14) + x(10,15) + x(10,16) + x(10,17) + x(10,18) + x(10,19)
             + x(10,20) + x(10,21) + x(10,22)  = 2
 degree(11): x(1,11) + x(2,11) + x(3,11) + x(4,11) + x(5,11) + x(6,11)
             + x(7,11) + x(8,11) + x(9,11) + x(10,11) + x(11,12) + x(11,13)
             + x(11,14) + x(11,15) + x(11,16) + x(11,17) + x(11,18) + x(11,19)
             + x(11,20) + x(11,21) + x(11,22)  = 2
 degree(12): x(1,12) + x(2,12) + x(3,12) + x(4,12) + x(5,12) + x(6,12)
             + x(7,12) + x(8,12) + x(9,12) + x(10,12) + x(11,12) + x(12,13)
             + x(12,14) + x(12,15) + x(12,16) + x(12,17) + x(12,18) + x(12,19)
             + x(12,20) + x(12,21) + x(12,22)  = 2
 degree(13): x(1,13) + x(2,13) + x(3,13) + x(4,13) + x(5,13) + x(6,13)
             + x(7,13) + x(8,13) + x(9,13) + x(10,13) + x(11,13) + x(12,13)
             + x(13,14) + x(13,15) + x(13,16) + x(13,17) + x(13,18) + x(13,19)
             + x(13,20) + x(13,21) + x(13,22)  = 2
 degree(14): x(1,14) + x(2,14) + x(3,14) + x(4,14) + x(5,14) + x(6,14)
             + x(7,14) + x(8,14) + x(9,14) + x(10,14) + x(11,14) + x(12,14)
             + x(13,14) + x(14,15) + x(14,16) + x(14,17) + x(14,18) + x(14,19)
             + x(14,20) + x(14,21) + x(14,22)  = 2
 degree(15): x(1,15) + x(2,15) + x(3,15) + x(4,15) + x(5,15) + x(6,15)
             + x(7,15) + x(8,15) + x(9,15) + x(10,15) + x(11,15) + x(12,15)
             + x(13,15) + x(14,15) + x(15,16) + x(15,17) + x(15,18) + x(15,19)
             + x(15,20) + x(15,21) + x(15,22)  = 2
 degree(16): x(1,16) + x(2,16) + x(3,16) + x(4,16) + x(5,16) + x(6,16)
             + x(7,16) + x(8,16) + x(9,16) + x(10,16) + x(11,16) + x(12,16)
             + x(13,16) + x(14,16) + x(15,16) + x(16,17) + x(16,18) + x(16,19)
             + x(16,20) + x(16,21) + x(16,22)  = 2
 degree(17): x(1,17) + x(2,17) + x(3,17) + x(4,17) + x(5,17) + x(6,17)
             + x(7,17) + x(8,17) + x(9,17) + x(10,17) + x(11,17) + x(12,17)
             + x(13,17) + x(14,17) + x(15,17) + x(16,17) + x(17,18) + x(17,19)
             + x(17,20) + x(17,21) + x(17,22)  = 2
 degree(18): x(1,18) + x(2,18) + x(3,18) + x(4,18) + x(5,18) + x(6,18)
             + x(7,18) + x(8,18) + x(9,18) + x(10,18) + x(11,18) + x(12,18)
             + x(13,18) + x(14,18) + x(15,18) + x(16,18) + x(17,18) + x(18,19)
             + x(18,20) + x(18,21) + x(18,22)  = 2
 degree(19): x(1,19) + x(2,19) + x(3,19) + x(4,19) + x(5,19) + x(6,19)
             + x(7,19) + x(8,19) + x(9,19) + x(10,19) + x(11,19) + x(12,19)
             + x(13,19) + x(14,19) + x(15,19) + x(16,19) + x(17,19) + x(18,19)
             + x(19,20) + x(19,21) + x(19,22)  = 2
 degree(20): x(1,20) + x(2,20) + x(3,20) + x(4,20) + x(5,20) + x(6,20)
             + x(7,20) + x(8,20) + x(9,20) + x(10,20) + x(11,20) + x(12,20)
             + x(13,20) + x(14,20) + x(15,20) + x(16,20) + x(17,20) + x(18,20)
             + x(19,20) + x(20,21) + x(20,22)  = 2
 degree(21): x(1,21) + x(2,21) + x(3,21) + x(4,21) + x(5,21) + x(6,21)
             + x(7,21) + x(8,21) + x(9,21) + x(10,21) + x(11,21) + x(12,21)
             + x(13,21) + x(14,21) + x(15,21) + x(16,21) + x(17,21) + x(18,21)
             + x(19,21) + x(20,21) + x(21,22)  = 2
 degree(22): x(1,22) + x(2,22) + x(3,22) + x(4,22) + x(5,22) + x(6,22)
             + x(7,22) + x(8,22) + x(9,22) + x(10,22) + x(11,22) + x(12,22)
             + x(13,22) + x(14,22) + x(15,22) + x(16,22) + x(17,22) + x(18,22)
             + x(19,22) + x(20,22) + x(21,22)  = 2
 SEC(0):     x(1,8) + x(1,16) + x(8,16) <= 2
 SEC(1):     x(1,8) + x(1,16) + x(2,3) + x(2,17) + x(3,17) + x(8,16) <= 5
 SEC(3):     x(1,8) + x(1,16) + x(2,3) + x(2,17) + x(3,17) + x(4,18) + x(4,22)
             + x(8,16) + x(18,22) <= 8
 SEC(8):     x(1,8) + x(1,16) + x(2,3) + x(2,17) + x(3,17) + x(4,18) + x(4,22)
             + x(5,6) + x(5,7) + x(5,9) + x(5,10) + x(5,11) + x(5,15) + x(6,7)
             + x(6,9) + x(6,10) + x(6,11) + x(6,15) + x(7,9) + x(7,10)
             + x(7,11) + x(7,15) + x(8,16) + x(9,10) + x(9,11) + x(9,15)
             + x(10,11) + x(10,15) + x(11,15) + x(18,22) <= 15
 SEC(11):    x(1,8) + x(1,16) + x(2,3) + x(2,17) + x(3,17) + x(4,18) + x(4,22)
             + x(5,6) + x(5,7) + x(5,9) + x(5,10) + x(5,11) + x(5,15) + x(6,7)
             + x(6,9) + x(6,10) + x(6,11) + x(6,15) + x(7,9) + x(7,10)
             + x(7,11) + x(7,15) + x(8,16) + x(9,10) + x(9,11) + x(9,15)
             + x(10,11) + x(10,15) + x(11,15) + x(12,13) + x(12,14) + x(13,14)
             + x(18,22) <= 18
 SEC(18):    x(1,8) + x(1,16) + x(2,3) + x(2,17) + x(3,17) + x(4,18) + x(4,22)
             + x(5,6) + x(5,7) + x(5,9) + x(5,10) + x(5,11) + x(5,15) + x(6,7)
             + x(6,9) + x(6,10) + x(6,11) + x(6,15) + x(7,9) + x(7,10)
             + x(7,11) + x(7,15) + x(8,16) + x(9,10) + x(9,11) + x(9,15)
             + x(10,11) + x(10,15) + x(11,15) + x(12,13) + x(12,14) + x(13,14)
             + x(18,22) + x(19,20) + x(19,21) + x(20,21) <= 21
 SEC(0):     x(1,4) + x(1,8) + x(1,16) + x(1,18) + x(1,22) + x(4,8) + x(4,16)
             + x(4,18) + x(4,22) + x(8,16) + x(8,18) + x(8,22) + x(16,18)
             + x(16,22) + x(18,22) <= 5
 SEC(1):     x(1,4) + x(1,8) + x(1,16) + x(1,18) + x(1,22) + x(2,3) + x(2,17)
             + x(3,17) + x(4,8) + x(4,16) + x(4,18) + x(4,22) + x(8,16)
             + x(8,18) + x(8,22) + x(16,18) + x(16,22) + x(18,22) <= 8
 SEC(8):     x(1,4) + x(1,8) + x(1,16) + x(1,18) + x(1,22) + x(2,3) + x(2,17)
             + x(3,17) + x(4,8) + x(4,16) + x(4,18) + x(4,22) + x(5,6) + x(5,7)
             + x(5,9) + x(5,10) + x(5,11) + x(5,15) + x(6,7) + x(6,9) + x(6,10)
             + x(6,11) + x(6,15) + x(7,9) + x(7,10) + x(7,11) + x(7,15)
             + x(8,16) + x(8,18) + x(8,22) + x(9,10) + x(9,11) + x(9,15)
             + x(10,11) + x(10,15) + x(11,15) + x(16,18) + x(16,22) + x(18,22)
             <= 15
 SEC(11):    x(1,4) + x(1,8) + x(1,16) + x(1,18) + x(1,22) + x(2,3) + x(2,17)
             + x(3,17) + x(4,8) + x(4,16) + x(4,18) + x(4,22) + x(5,6) + x(5,7)
             + x(5,9) + x(5,10) + x(5,11) + x(5,15) + x(6,7) + x(6,9) + x(6,10)
             + x(6,11) + x(6,15) + x(7,9) + x(7,10) + x(7,11) + x(7,15)
             + x(8,16) + x(8,18) + x(8,22) + x(9,10) + x(9,11) + x(9,15)
             + x(10,11) + x(10,15) + x(11,15) + x(12,13) + x(12,14) + x(13,14)
             + x(16,18) + x(16,22) + x(18,22) <= 18
 SEC(18):    x(1,4) + x(1,8) + x(1,16) + x(1,18) + x(1,22) + x(2,3) + x(2,17)
             + x(3,17) + x(4,8) + x(4,16) + x(4,18) + x(4,22) + x(5,6) + x(5,7)
             + x(5,9) + x(5,10) + x(5,11) + x(5,15) + x(6,7) + x(6,9) + x(6,10)
             + x(6,11) + x(6,15) + x(7,9) + x(7,10) + x(7,11) + x(7,15)
             + x(8,16) + x(8,18) + x(8,22) + x(9,10) + x(9,11) + x(9,15)
             + x(10,11) + x(10,15) + x(11,15) + x(12,13) + x(12,14) + x(13,14)
             + x(16,18) + x(16,22) + x(18,22) + x(19,20) + x(19,21) + x(20,21)
             <= 21
 SEC(1):     x(1,2) + x(1,3) + x(1,4) + x(1,8) + x(1,16) + x(1,17) + x(1,18)
             + x(1,22) + x(2,3) + x(2,4) + x(2,8) + x(2,16) + x(2,17) + x(2,18)
             + x(2,22) + x(3,4) + x(3,8) + x(3,16) + x(3,17) + x(3,18)
             + x(3,22) + x(4,8) + x(4,16) + x(4,17) + x(4,18) + x(4,22)
             + x(8,16) + x(8,17) + x(8,18) + x(8,22) + x(16,17) + x(16,18)
             + x(16,22) + x(17,18) + x(17,22) + x(18,22) <= 8
 SEC(8):     x(1,2) + x(1,3) + x(1,4) + x(1,8) + x(1,16) + x(1,17) + x(1,18)
             + x(1,22) + x(2,3) + x(2,4) + x(2,8) + x(2,16) + x(2,17) + x(2,18)
             + x(2,22) + x(3,4) + x(3,8) + x(3,16) + x(3,17) + x(3,18)
             + x(3,22) + x(4,8) + x(4,16) + x(4,17) + x(4,18) + x(4,22)
             + x(5,6) + x(5,7) + x(5,9) + x(5,10) + x(5,11) + x(5,15) + x(6,7)
             + x(6,9) + x(6,10) + x(6,11) + x(6,15) + x(7,9) + x(7,10)
             + x(7,11) + x(7,15) + x(8,16) + x(8,17) + x(8,18) + x(8,22)
             + x(9,10) + x(9,11) + x(9,15) + x(10,11) + x(10,15) + x(11,15)
             + x(16,17) + x(16,18) + x(16,22) + x(17,18) + x(17,22) + x(18,22)
             <= 15
 SEC(11):    x(1,2) + x(1,3) + x(1,4) + x(1,8) + x(1,16) + x(1,17) + x(1,18)
             + x(1,22) + x(2,3) + x(2,4) + x(2,8) + x(2,16) + x(2,17) + x(2,18)
             + x(2,22) + x(3,4) + x(3,8) + x(3,16) + x(3,17) + x(3,18)
             + x(3,22) + x(4,8) + x(4,16) + x(4,17) + x(4,18) + x(4,22)
             + x(5,6) + x(5,7) + x(5,9) + x(5,10) + x(5,11) + x(5,15) + x(6,7)
             + x(6,9) + x(6,10) + x(6,11) + x(6,15) + x(7,9) + x(7,10)
             + x(7,11) + x(7,15) + x(8,16) + x(8,17) + x(8,18) + x(8,22)
             + x(9,10) + x(9,11) + x(9,15) + x(10,11) + x(10,15) + x(11,15)
             + x(12,13) + x(12,14) + x(13,14) + x(16,17) + x(16,18) + x(16,22)
             + x(17,18) + x(17,22) + x(18,22) <= 18
 SEC(18):    x(1,2) + x(1,3) + x(1,4) + x(1,8) + x(1,16) + x(1,17) + x(1,18)
             + x(1,22) + x(2,3) + x(2,4) + x(2,8) + x(2,16) + x(2,17) + x(2,18)
             + x(2,22) + x(3,4) + x(3,8) + x(3,16) + x(3,17) + x(3,18)
             + x(3,22) + x(4,8) + x(4,16) + x(4,17) + x(4,18) + x(4,22)
             + x(5,6) + x(5,7) + x(5,9) + x(5,10) + x(5,11) + x(5,15) + x(6,7)
             + x(6,9) + x(6,10) + x(6,11) + x(6,15) + x(7,9) + x(7,10)
             + x(7,11) + x(7,15) + x(8,16) + x(8,17) + x(8,18) + x(8,22)
             + x(9,10) + x(9,11) + x(9,15) + x(10,11) + x(10,15) + x(11,15)
             + x(12,13) + x(12,14) + x(13,14) + x(16,17) + x(16,18) + x(16,22)
             + x(17,18) + x(17,22) + x(18,22) + x(19,20) + x(19,21) + x(20,21)
             <= 21
 SEC(1):     x(2,3) + x(2,17) + x(3,17) <= 2
 SEC(3):     x(2,3) + x(2,17) + x(3,17) + x(4,18) + x(4,22) + x(18,22) <= 5
 SEC(8):     x(2,3) + x(2,17) + x(3,17) + x(4,18) + x(4,22) + x(5,6) + x(5,7)
             + x(5,9) + x(5,10) + x(5,11) + x(5,15) + x(6,7) + x(6,9) + x(6,10)
             + x(6,11) + x(6,15) + x(7,9) + x(7,10) + x(7,11) + x(7,15)
             + x(9,10) + x(9,11) + x(9,15) + x(10,11) + x(10,15) + x(11,15)
             + x(18,22) <= 12
 SEC(11):    x(1,8) + x(1,12) + x(1,13) + x(1,14) + x(1,16) + x(2,3) + x(2,17)
             + x(3,17) + x(4,18) + x(4,22) + x(5,6) + x(5,7) + x(5,9) + x(5,10)
             + x(5,11) + x(5,15) + x(6,7) + x(6,9) + x(6,10) + x(6,11)
             + x(6,15) + x(7,9) + x(7,10) + x(7,11) + x(7,15) + x(8,12)
             + x(8,13) + x(8,14) + x(8,16) + x(9,10) + x(9,11) + x(9,15)
             + x(10,11) + x(10,15) + x(11,15) + x(12,13) + x(12,14) + x(12,16)
             + x(13,14) + x(13,16) + x(14,16) + x(18,22) <= 18
 SEC(18):    x(1,8) + x(1,12) + x(1,13) + x(1,14) + x(1,16) + x(2,3) + x(2,17)
             + x(3,17) + x(4,18) + x(4,22) + x(5,6) + x(5,7) + x(5,9) + x(5,10)
             + x(5,11) + x(5,15) + x(6,7) + x(6,9) + x(6,10) + x(6,11)
             + x(6,15) + x(7,9) + x(7,10) + x(7,11) + x(7,15) + x(8,12)
             + x(8,13) + x(8,14) + x(8,16) + x(9,10) + x(9,11) + x(9,15)
             + x(10,11) + x(10,15) + x(11,15) + x(12,13) + x(12,14) + x(12,16)
             + x(13,14) + x(13,16) + x(14,16) + x(18,22) + x(19,20) + x(19,21)
             + x(20,21) <= 21
 SEC(3):     x(2,3) + x(2,4) + x(2,17) + x(2,18) + x(2,22) + x(3,4) + x(3,17)
             + x(3,18) + x(3,22) + x(4,17) + x(4,18) + x(4,22) + x(17,18)
             + x(17,22) + x(18,22) <= 5
 SEC(8):     x(2,3) + x(2,4) + x(2,17) + x(2,18) + x(2,22) + x(3,4) + x(3,17)
             + x(3,18) + x(3,22) + x(4,17) + x(4,18) + x(4,22) + x(5,6)
             + x(5,7) + x(5,9) + x(5,10) + x(5,11) + x(5,15) + x(6,7) + x(6,9)
             + x(6,10) + x(6,11) + x(6,15) + x(7,9) + x(7,10) + x(7,11)
             + x(7,15) + x(9,10) + x(9,11) + x(9,15) + x(10,11) + x(10,15)
             + x(11,15) + x(17,18) + x(17,22) + x(18,22) <= 12
 SEC(11):    x(1,8) + x(1,12) + x(1,13) + x(1,14) + x(1,16) + x(2,3) + x(2,4)
             + x(2,17) + x(2,18) + x(2,22) + x(3,4) + x(3,17) + x(3,18)
             + x(3,22) + x(4,17) + x(4,18) + x(4,22) + x(5,6) + x(5,7) + x(5,9)
             + x(5,10) + x(5,11) + x(5,15) + x(6,7) + x(6,9) + x(6,10)
             + x(6,11) + x(6,15) + x(7,9) + x(7,10) + x(7,11) + x(7,15)
             + x(8,12) + x(8,13) + x(8,14) + x(8,16) + x(9,10) + x(9,11)
             + x(9,15) + x(10,11) + x(10,15) + x(11,15) + x(12,13) + x(12,14)
             + x(12,16) + x(13,14) + x(13,16) + x(14,16) + x(17,18) + x(17,22)
             + x(18,22) <= 18
 SEC(18):    x(1,8) + x(1,12) + x(1,13) + x(1,14) + x(1,16) + x(2,3) + x(2,4)
             + x(2,17) + x(2,18) + x(2,22) + x(3,4) + x(3,17) + x(3,18)
             + x(3,22) + x(4,17) + x(4,18) + x(4,22) + x(5,6) + x(5,7) + x(5,9)
             + x(5,10) + x(5,11) + x(5,15) + x(6,7) + x(6,9) + x(6,10)
             + x(6,11) + x(6,15) + x(7,9) + x(7,10) + x(7,11) + x(7,15)
             + x(8,12) + x(8,13) + x(8,14) + x(8,16) + x(9,10) + x(9,11)
             + x(9,15) + x(10,11) + x(10,15) + x(11,15) + x(12,13) + x(12,14)
             + x(12,16) + x(13,14) + x(13,16) + x(14,16) + x(17,18) + x(17,22)
             + x(18,22) + x(19,20) + x(19,21) + x(20,21) <= 21
 SEC(1):     x(1,2) + x(1,3) + x(1,4) + x(1,8) + x(1,17) + x(1,18) + x(1,22)
             + x(2,3) + x(2,4) + x(2,8) + x(2,17) + x(2,18) + x(2,22) + x(3,4)
             + x(3,8) + x(3,17) + x(3,18) + x(3,22) + x(4,8) + x(4,17)
             + x(4,18) + x(4,22) + x(8,17) + x(8,18) + x(8,22) + x(17,18)
             + x(17,22) + x(18,22) <= 7
 SEC(8):     x(1,2) + x(1,3) + x(1,4) + x(1,8) + x(1,17) + x(1,18) + x(1,22)
             + x(2,3) + x(2,4) + x(2,8) + x(2,17) + x(2,18) + x(2,22) + x(3,4)
             + x(3,8) + x(3,17) + x(3,18) + x(3,22) + x(4,8) + x(4,17)
             + x(4,18) + x(4,22) + x(5,6) + x(5,7) + x(5,9) + x(5,10) + x(5,11)
             + x(5,15) + x(6,7) + x(6,9) + x(6,10) + x(6,11) + x(6,15) + x(7,9)
             + x(7,10) + x(7,11) + x(7,15) + x(8,17) + x(8,18) + x(8,22)
             + x(9,10) + x(9,11) + x(9,15) + x(10,11) + x(10,15) + x(11,15)
             + x(17,18) + x(17,22) + x(18,22) <= 14
 SEC(12):    x(1,2) + x(1,3) + x(1,4) + x(1,8) + x(1,17) + x(1,18) + x(1,22)
             + x(2,3) + x(2,4) + x(2,8) + x(2,17) + x(2,18) + x(2,22) + x(3,4)
             + x(3,8) + x(3,17) + x(3,18) + x(3,22) + x(4,8) + x(4,17)
             + x(4,18) + x(4,22) + x(5,6) + x(5,7) + x(5,9) + x(5,10) + x(5,11)
             + x(5,15) + x(6,7) + x(6,9) + x(6,10) + x(6,11) + x(6,15) + x(7,9)
             + x(7,10) + x(7,11) + x(7,15) + x(8,17) + x(8,18) + x(8,22)
             + x(9,10) + x(9,11) + x(9,15) + x(10,11) + x(10,15) + x(11,15)
             + x(12,13) + x(12,14) + x(12,16) + x(13,14) + x(13,16) + x(14,16)
             + x(17,18) + x(17,22) + x(18,22) <= 18
 SEC(18):    x(1,2) + x(1,3) + x(1,4) + x(1,8) + x(1,17) + x(1,18) + x(1,22)
             + x(2,3) + x(2,4) + x(2,8) + x(2,17) + x(2,18) + x(2,22) + x(3,4)
             + x(3,8) + x(3,17) + x(3,18) + x(3,22) + x(4,8) + x(4,17)
             + x(4,18) + x(4,22) + x(5,6) + x(5,7) + x(5,9) + x(5,10) + x(5,11)
             + x(5,15) + x(6,7) + x(6,9) + x(6,10) + x(6,11) + x(6,15) + x(7,9)
             + x(7,10) + x(7,11) + x(7,15) + x(8,17) + x(8,18) + x(8,22)
             + x(9,10) + x(9,11) + x(9,15) + x(10,11) + x(10,15) + x(11,15)
             + x(12,13) + x(12,14) + x(12,16) + x(13,14) + x(13,16) + x(14,16)
             + x(17,18) + x(17,22) + x(18,22) + x(19,20) + x(19,21) + x(20,21)
             <= 21
 SEC(8):     x(5,6) + x(5,7) + x(5,9) + x(5,10) + x(5,11) + x(5,15) + x(6,7)
             + x(6,9) + x(6,10) + x(6,11) + x(6,15) + x(7,9) + x(7,10)
             + x(7,11) + x(7,15) + x(9,10) + x(9,11) + x(9,15) + x(10,11)
             + x(10,15) + x(11,15) <= 6
 SEC(11):    x(1,2) + x(1,3) + x(1,4) + x(1,8) + x(1,12) + x(1,13) + x(1,14)
             + x(1,16) + x(1,17) + x(1,18) + x(1,22) + x(2,3) + x(2,4) + x(2,8)
             + x(2,12) + x(2,13) + x(2,14) + x(2,16) + x(2,17) + x(2,18)
             + x(2,22) + x(3,4) + x(3,8) + x(3,12) + x(3,13) + x(3,14)
             + x(3,16) + x(3,17) + x(3,18) + x(3,22) + x(4,8) + x(4,12)
             + x(4,13) + x(4,14) + x(4,16) + x(4,17) + x(4,18) + x(4,22)
             + x(5,6) + x(5,7) + x(5,9) + x(5,10) + x(5,11) + x(5,15) + x(6,7)
             + x(6,9) + x(6,10) + x(6,11) + x(6,15) + x(7,9) + x(7,10)
             + x(7,11) + x(7,15) + x(8,12) + x(8,13) + x(8,14) + x(8,16)
             + x(8,17) + x(8,18) + x(8,22) + x(9,10) + x(9,11) + x(9,15)
             + x(10,11) + x(10,15) + x(11,15) + x(12,13) + x(12,14) + x(12,16)
             + x(12,17) + x(12,18) + x(12,22) + x(13,14) + x(13,16) + x(13,17)
             + x(13,18) + x(13,22) + x(14,16) + x(14,17) + x(14,18) + x(14,22)
             + x(16,17) + x(16,18) + x(16,22) + x(17,18) + x(17,22) + x(18,22)
             <= 18
 SEC(18):    x(1,2) + x(1,3) + x(1,4) + x(1,8) + x(1,12) + x(1,13) + x(1,14)
             + x(1,16) + x(1,17) + x(1,18) + x(1,22) + x(2,3) + x(2,4) + x(2,8)
             + x(2,12) + x(2,13) + x(2,14) + x(2,16) + x(2,17) + x(2,18)
             + x(2,22) + x(3,4) + x(3,8) + x(3,12) + x(3,13) + x(3,14)
             + x(3,16) + x(3,17) + x(3,18) + x(3,22) + x(4,8) + x(4,12)
             + x(4,13) + x(4,14) + x(4,16) + x(4,17) + x(4,18) + x(4,22)
             + x(5,6) + x(5,7) + x(5,9) + x(5,10) + x(5,11) + x(5,15) + x(6,7)
             + x(6,9) + x(6,10) + x(6,11) + x(6,15) + x(7,9) + x(7,10)
             + x(7,11) + x(7,15) + x(8,12) + x(8,13) + x(8,14) + x(8,16)
             + x(8,17) + x(8,18) + x(8,22) + x(9,10) + x(9,11) + x(9,15)
             + x(10,11) + x(10,15) + x(11,15) + x(12,13) + x(12,14) + x(12,16)
             + x(12,17) + x(12,18) + x(12,22) + x(13,14) + x(13,16) + x(13,17)
             + x(13,18) + x(13,22) + x(14,16) + x(14,17) + x(14,18) + x(14,22)
             + x(16,17) + x(16,18) + x(16,22) + x(17,18) + x(17,22) + x(18,22)
             + x(19,20) + x(19,21) + x(20,21) <= 21
 SEC(8):     x(5,6) + x(5,7) + x(5,9) + x(5,10) + x(5,11) + x(5,15) + x(5,19)
             + x(5,20) + x(5,21) + x(6,7) + x(6,9) + x(6,10) + x(6,11)
             + x(6,15) + x(6,19) + x(6,20) + x(6,21) + x(7,9) + x(7,10)
             + x(7,11) + x(7,15) + x(7,19) + x(7,20) + x(7,21) + x(9,10)
             + x(9,11) + x(9,15) + x(9,19) + x(9,20) + x(9,21) + x(10,11)
             + x(10,15) + x(10,19) + x(10,20) + x(10,21) + x(11,15) + x(11,19)
             + x(11,20) + x(11,21) + x(15,19) + x(15,20) + x(15,21) + x(19,20)
             + x(19,21) + x(20,21) <= 9
 SEC(11):    x(1,2) + x(1,3) + x(1,4) + x(1,8) + x(1,12) + x(1,13) + x(1,14)
             + x(1,16) + x(1,17) + x(1,18) + x(1,22) + x(2,3) + x(2,4) + x(2,8)
             + x(2,12) + x(2,13) + x(2,14) + x(2,16) + x(2,17) + x(2,18)
             + x(2,22) + x(3,4) + x(3,8) + x(3,12) + x(3,13) + x(3,14)
             + x(3,16) + x(3,17) + x(3,18) + x(3,22) + x(4,8) + x(4,12)
             + x(4,13) + x(4,14) + x(4,16) + x(4,17) + x(4,18) + x(4,22)
             + x(5,6) + x(5,7) + x(5,9) + x(5,10) + x(5,11) + x(5,15) + x(5,19)
             + x(5,20) + x(5,21) + x(6,7) + x(6,9) + x(6,10) + x(6,11)
             + x(6,15) + x(6,19) + x(6,20) + x(6,21) + x(7,9) + x(7,10)
             + x(7,11) + x(7,15) + x(7,19) + x(7,20) + x(7,21) + x(8,12)
             + x(8,13) + x(8,14) + x(8,16) + x(8,17) + x(8,18) + x(8,22)
             + x(9,10) + x(9,11) + x(9,15) + x(9,19) + x(9,20) + x(9,21)
             + x(10,11) + x(10,15) + x(10,19) + x(10,20) + x(10,21) + x(11,15)
             + x(11,19) + x(11,20) + x(11,21) + x(12,13) + x(12,14) + x(12,16)
             + x(12,17) + x(12,18) + x(12,22) + x(13,14) + x(13,16) + x(13,17)
             + x(13,18) + x(13,22) + x(14,16) + x(14,17) + x(14,18) + x(14,22)
             + x(15,19) + x(15,20) + x(15,21) + x(16,17) + x(16,18) + x(16,22)
             + x(17,18) + x(17,22) + x(18,22) + x(19,20) + x(19,21) + x(20,21)
             <= 21
Bounds
 0 <= x(1,2) <= 1
 0 <= x(1,3) <= 1
 0 <= x(1,4) <= 1
 0 <= x(1,5) <= 1
 0 <= x(1,6) <= 1
 0 <= x(1,7) <= 1
 0 <= x(1,8) <= 1
 0 <= x(1,9) <= 1
 0 <= x(1,10) <= 1
 0 <= x(1,11) <= 1
 0 <= x(1,12) <= 1
 0 <= x(1,13) <= 1
 0 <= x(1,14) <= 1
 0 <= x(1,15) <= 1
 0 <= x(1,16) <= 1
 0 <= x(1,17) <= 1
 0 <= x(1,18) <= 1
 0 <= x(1,19) <= 1
 0 <= x(1,20) <= 1
 0 <= x(1,21) <= 1
 0 <= x(1,22) <= 1
 0 <= x(2,3) <= 1
 0 <= x(2,4) <= 1
 0 <= x(2,5) <= 1
 0 <= x(2,6) <= 1
 0 <= x(2,7) <= 1
 0 <= x(2,8) <= 1
 0 <= x(2,9) <= 1
 0 <= x(2,10) <= 1
 0 <= x(2,11) <= 1
 0 <= x(2,12) <= 1
 0 <= x(2,13) <= 1
 0 <= x(2,14) <= 1
 0 <= x(2,15) <= 1
 0 <= x(2,16) <= 1
 0 <= x(2,17) <= 1
 0 <= x(2,18) <= 1
 0 <= x(2,19) <= 1
 0 <= x(2,20) <= 1
 0 <= x(2,21) <= 1
 0 <= x(2,22) <= 1
 0 <= x(3,4) <= 1
 0 <= x(3,5) <= 1
 0 <= x(3,6) <= 1
 0 <= x(3,7) <= 1
 0 <= x(3,8) <= 1
 0 <= x(3,9) <= 1
 0 <= x(3,10) <= 1
 0 <= x(3,11) <= 1
 0 <= x(3,12) <= 1
 0 <= x(3,13) <= 1
 0 <= x(3,14) <= 1
 0 <= x(3,15) <= 1
 0 <= x(3,16) <= 1
 0 <= x(3,17) <= 1
 0 <= x(3,18) <= 1
 0 <= x(3,19) <= 1
 0 <= x(3,20) <= 1
 0 <= x(3,21) <= 1
 0 <= x(3,22) <= 1
 0 <= x(4,5) <= 1
 0 <= x(4,6) <= 1
 0 <= x(4,7) <= 1
 0 <= x(4,8) <= 1
 0 <= x(4,9) <= 1
 0 <= x(4,10) <= 1
 0 <= x(4,11) <= 1
 0 <= x(4,12) <= 1
 0 <= x(4,13) <= 1
 0 <= x(4,14) <= 1
 0 <= x(4,15) <= 1
 0 <= x(4,16) <= 1
 0 <= x(4,17) <= 1
 0 <= x(4,18) <= 1
 0 <= x(4,19) <= 1
 0 <= x(4,20) <= 1
 0 <= x(4,21) <= 1
 0 <= x(4,22) <= 1
 0 <= x(5,6) <= 1
 0 <= x(5,7) <= 1
 0 <= x(5,8) <= 1
 0 <= x(5,9) <= 1
 0 <= x(5,10) <= 1
 0 <= x(5,11) <= 1
 0 <= x(5,12) <= 1
 0 <= x(5,13) <= 1
 0 <= x(5,14) <= 1
 0 <= x(5,15) <= 1
 0 <= x(5,16) <= 1
 0 <= x(5,17) <= 1
 0 <= x(5,18) <= 1
 0 <= x(5,19) <= 1
 0 <= x(5,20) <= 1
 0 <= x(5,21) <= 1
 0 <= x(5,22) <= 1
 0 <= x(6,7) <= 1
 0 <= x(6,8) <= 1
 0 <= x(6,9) <= 1
 0 <= x(6,10) <= 1
 0 <= x(6,11) <= 1
 0 <= x(6,12) <= 1
 0 <= x(6,13) <= 1
 0 <= x(6,14) <= 1
 0 <= x(6,15) <= 1
 0 <= x(6,16) <= 1
 0 <= x(6,17) <= 1
 0 <= x(6,18) <= 1
 0 <= x(6,19) <= 1
 0 <= x(6,20) <= 1
 0 <= x(6,21) <= 1
 0 <= x(6,22) <= 1
 0 <= x(7,8) <= 1
 0 <= x(7,9) <= 1
 0 <= x(7,10) <= 1
 0 <= x(7,11) <= 1
 0 <= x(7,12) <= 1
 0 <= x(7,13) <= 1
 0 <= x(7,14) <= 1
 0 <= x(7,15) <= 1
 0 <= x(7,16) <= 1
 0 <= x(7,17) <= 1
 0 <= x(7,18) <= 1
 0 <= x(7,19) <= 1
 0 <= x(7,20) <= 1
 0 <= x(7,21) <= 1
 0 <= x(7,22) <= 1
 0 <= x(8,9) <= 1
 0 <= x(8,10) <= 1
 0 <= x(8,11) <= 1
 0 <= x(8,12) <= 1
 0 <= x(8,13) <= 1
 0 <= x(8,14) <= 1
 0 <= x(8,15) <= 1
 0 <= x(8,16) <= 1
 0 <= x(8,17) <= 1
 0 <= x(8,18) <= 1
 0 <= x(8,19) <= 1
 0 <= x(8,20) <= 1
 0 <= x(8,21) <= 1
 0 <= x(8,22) <= 1
 0 <= x(9,10) <= 1
 0 <= x(9,11) <= 1
 0 <= x(9,12) <= 1
 0 <= x(9,13) <= 1
 0 <= x(9,14) <= 1
 0 <= x(9,15) <= 1
 0 <= x(9,16) <= 1
 0 <= x(9,17) <= 1
 0 <= x(9,18) <= 1
 0 <= x(9,19) <= 1
 0 <= x(9,20) <= 1
 0 <= x(9,21) <= 1
 0 <= x(9,22) <= 1
 0 <= x(10,11) <= 1
 0 <= x(10,12) <= 1
 0 <= x(10,13) <= 1
 0 <= x(10,14) <= 1
 0 <= x(10,15) <= 1
 0 <= x(10,16) <= 1
 0 <= x(10,17) <= 1
 0 <= x(10,18) <= 1
 0 <= x(10,19) <= 1
 0 <= x(10,20) <= 1
 0 <= x(10,21) <= 1
 0 <= x(10,22) <= 1
 0 <= x(11,12) <= 1
 0 <= x(11,13) <= 1
 0 <= x(11,14) <= 1
 0 <= x(11,15) <= 1
 0 <= x(11,16) <= 1
 0 <= x(11,17) <= 1
 0 <= x(11,18) <= 1
 0 <= x(11,19) <= 1
 0 <= x(11,20) <= 1
 0 <= x(11,21) <= 1
 0 <= x(11,22) <= 1
 0 <= x(12,13) <= 1
 0 <= x(12,14) <= 1
 0 <= x(12,15) <= 1
 0 <= x(12,16) <= 1
 0 <= x(12,17) <= 1
 0 <= x(12,18) <= 1
 0 <= x(12,19) <= 1
 0 <= x(12,20) <= 1
 0 <= x(12,21) <= 1
 0 <= x(12,22) <= 1
 0 <= x(13,14) <= 1
 0 <= x(13,15) <= 1
 0 <= x(13,16) <= 1
 0 <= x(13,17) <= 1
 0 <= x(13,18) <= 1
 0 <= x(13,19) <= 1
 0 <= x(13,20) <= 1
 0 <= x(13,21) <= 1
 0 <= x(13,22) <= 1
 0 <= x(14,15) <= 1
 0 <= x(14,16) <= 1
 0 <= x(14,17) <= 1
 0 <= x(14,18) <= 1
 0 <= x(14,19) <= 1
 0 <= x(14,20) <= 1
 0 <= x(14,21) <= 1
 0 <= x(14,22) <= 1
 0 <= x(15,16) <= 1
 0 <= x(15,17) <= 1
 0 <= x(15,18) <= 1
 0 <= x(15,19) <= 1
 0 <= x(15,20) <= 1
 0 <= x(15,21) <= 1
 0 <= x(15,22) <= 1
 0 <= x(16,17) <= 1
 0 <= x(16,18) <= 1
 0 <= x(16,19) <= 1
 0 <= x(16,20) <= 1
 0 <= x(16,21) <= 1
 0 <= x(16,22) <= 1
 0 <= x(17,18) <= 1
 0 <= x(17,19) <= 1
 0 <= x(17,20) <= 1
 0 <= x(17,21) <= 1
 0 <= x(17,22) <= 1
 0 <= x(18,19) <= 1
 0 <= x(18,20) <= 1
 0 <= x(18,21) <= 1
 0 <= x(18,22) <= 1
 0 <= x(19,20) <= 1
 0 <= x(19,21) <= 1
 0 <= x(19,22) <= 1
 0 <= x(20,21) <= 1
 0 <= x(20,22) <= 1
 0 <= x(21,22) <= 1
Binaries
 x(1,2)  x(1,3)  x(1,4)  x(1,5)  x(1,6)  x(1,7)  x(1,8)  x(1,9)  x(1,10) 
 x(1,11)  x(1,12)  x(1,13)  x(1,14)  x(1,15)  x(1,16)  x(1,17)  x(1,18) 
 x(1,19)  x(1,20)  x(1,21)  x(1,22)  x(2,3)  x(2,4)  x(2,5)  x(2,6)  x(2,7) 
 x(2,8)  x(2,9)  x(2,10)  x(2,11)  x(2,12)  x(2,13)  x(2,14)  x(2,15)  x(2,16) 
 x(2,17)  x(2,18)  x(2,19)  x(2,20)  x(2,21)  x(2,22)  x(3,4)  x(3,5)  x(3,6) 
 x(3,7)  x(3,8)  x(3,9)  x(3,10)  x(3,11)  x(3,12)  x(3,13)  x(3,14)  x(3,15) 
 x(3,16)  x(3,17)  x(3,18)  x(3,19)  x(3,20)  x(3,21)  x(3,22)  x(4,5)  x(4,6) 
 x(4,7)  x(4,8)  x(4,9)  x(4,10)  x(4,11)  x(4,12)  x(4,13)  x(4,14)  x(4,15) 
 x(4,16)  x(4,17)  x(4,18)  x(4,19)  x(4,20)  x(4,21)  x(4,22)  x(5,6)  x(5,7) 
 x(5,8)  x(5,9)  x(5,10)  x(5,11)  x(5,12)  x(5,13)  x(5,14)  x(5,15)  x(5,16) 
 x(5,17)  x(5,18)  x(5,19)  x(5,20)  x(5,21)  x(5,22)  x(6,7)  x(6,8)  x(6,9) 
 x(6,10)  x(6,11)  x(6,12)  x(6,13)  x(6,14)  x(6,15)  x(6,16)  x(6,17) 
 x(6,18)  x(6,19)  x(6,20)  x(6,21)  x(6,22)  x(7,8)  x(7,9)  x(7,10)  x(7,11) 
 x(7,12)  x(7,13)  x(7,14)  x(7,15)  x(7,16)  x(7,17)  x(7,18)  x(7,19) 
 x(7,20)  x(7,21)  x(7,22)  x(8,9)  x(8,10)  x(8,11)  x(8,12)  x(8,13) 
 x(8,14)  x(8,15)  x(8,16)  x(8,17)  x(8,18)  x(8,19)  x(8,20)  x(8,21) 
 x(8,22)  x(9,10)  x(9,11)  x(9,12)  x(9,13)  x(9,14)  x(9,15)  x(9,16) 
 x(9,17)  x(9,18)  x(9,19)  x(9,20)  x(9,21)  x(9,22)  x(10,11)  x(10,12) 
 x(10,13)  x(10,14)  x(10,15)  x(10,16)  x(10,17)  x(10,18)  x(10,19) 
 x(10,20)  x(10,21)  x(10,22)  x(11,12)  x(11,13)  x(11,14)  x(11,15) 
 x(11,16)  x(11,17)  x(11,18)  x(11,19)  x(11,20)  x(11,21)  x(11,22) 
 x(12,13)  x(12,14)  x(12,15)  x(12,16)  x(12,17)  x(12,18)  x(12,19) 
 x(12,20)  x(12,21)  x(12,22)  x(13,14)  x(13,15)  x(13,16)  x(13,17) 
 x(13,18)  x(13,19)  x(13,20)  x(13,21)  x(13,22)  x(14,15)  x(14,16) 
 x(14,17)  x(14,18)  x(14,19)  x(14,20)  x(14,21)  x(14,22)  x(15,16) 
 x(15,17)  x(15,18)  x(15,19)  x(15,20)  x(15,21)  x(15,22)  x(16,17) 
 x(16,18)  x(16,19)  x(16,20)  x(16,21)  x(16,22)  x(17,18)  x(17,19) 
 x(17,20)  x(17,21)  x(17,22)  x(18,19)  x(18,20)  x(18,21)  x(18,22) 
 x(19,20)  x(19,21)  x(19,22)  x(20,21)  x(20,22)  x(21,22) 
End
